c SAT Generator for power-law distributed variable frequencies
c -g u -v 20 -c 91 -k 3 -p 2.750000 -b 3.200000 -f /home/schmidt/Devel/ni-kop-sat/data/ensemble/ruf20-91/ruf20-91-712 -u 1 -U 1 -s 313680132
p cnf 20 91
-5 6 13 0
7 16 19 0
-7 8 9 0
-4 7 -8 0
6 8 -15 0
-3 14 -19 0
9 -15 16 0
-4 5 -20 0
-6 9 17 0
2 7 10 0
-1 7 -19 0
2 8 13 0
-12 -14 -15 0
-8 15 -20 0
-1 12 13 0
10 -14 -15 0
-8 11 -18 0
5 -11 -20 0
-9 -17 -20 0
4 -9 -13 0
-3 -12 14 0
4 8 -14 0
10 -13 -20 0
-5 -10 -17 0
-7 10 -19 0
11 -18 20 0
8 10 -18 0
-2 6 -7 0
-2 7 19 0
5 -13 -16 0
-4 12 20 0
-9 -13 -14 0
11 -13 19 0
-10 11 -15 0
-7 -15 18 0
7 -15 20 0
-12 16 -19 0
9 -16 19 0
-1 11 15 0
4 -9 -17 0
6 7 11 0
-11 -16 -19 0
-1 -15 18 0
-11 15 -20 0
-9 10 17 0
1 6 -7 0
-8 -15 18 0
1 15 19 0
-11 12 13 0
3 -7 16 0
6 14 -20 0
-2 9 13 0
14 -16 -18 0
-5 -15 -18 0
9 11 -12 0
1 -14 -18 0
2 -12 -18 0
-1 -13 15 0
4 10 12 0
5 11 12 0
10 -15 -18 0
-14 15 -17 0
-5 -9 -11 0
7 -15 17 0
-5 -12 20 0
-4 -8 9 0
2 -10 -18 0
3 10 -14 0
-6 7 11 0
7 -8 20 0
-9 -14 18 0
-7 15 -20 0
-12 14 17 0
5 -13 14 0
8 -14 -16 0
-7 8 14 0
-11 -15 19 0
-4 16 -17 0
3 -8 19 0
9 -14 -19 0
-3 -11 -19 0
11 -16 -20 0
2 -3 11 0
5 9 15 0
-10 12 18 0
10 -13 14 0
-4 -14 18 0
-6 13 16 0
3 -9 11 0
5 -10 -12 0
-9 -11 19 0
